NAME PortOpt_n10_m4_inst_6
ROWS
 N  OBJ
 E  budget  
 G  return  
 L  uncertain_risk
 L  fixed_risk
COLUMNS
    asset[0]  budget    1
    asset[0]  return    4.9015942923577178e+00
    asset[1]  budget    1
    asset[1]  return    1.2075761405309642e+00
    asset[2]  budget    1
    asset[2]  return    3.3429271716044817e+00
    asset[3]  budget    1
    asset[3]  return    4.6408595564135000e+00
    asset[4]  budget    1
    asset[4]  return    2.9907397644162135e+00
    asset[5]  budget    1
    asset[5]  return    2.8799267284545751e+00
    asset[6]  budget    1
    asset[6]  return    4.2632742393357628e+00
    asset[7]  budget    1
    asset[7]  return    1.9414115972342376e+00
    asset[8]  budget    1
    asset[8]  return    4.5436184956416259e+00
    asset[9]  budget    1
    asset[9]  return    1.3479932067668567e+00
    return_var  OBJ       -1
    return_var  return    -1
    uncertain_risk_var  OBJ       1
    uncertain_risk_var  uncertain_risk  -1
    fixed_risk_var  OBJ       1
    fixed_risk_var  fixed_risk  -1
RHS
    RHS1      budget    1
BOUNDS
QCMATRIX   uncertain_risk
    asset[0]  asset[0]  1.1061075932214877e-01
    asset[0]  asset[1]  -1.9105818988458551e-02
    asset[1]  asset[0]  -1.9105818988458551e-02
    asset[0]  asset[2]  1.2128336916213886e-02
    asset[2]  asset[0]  1.2128336916213886e-02
    asset[0]  asset[3]  5.1500190897979727e-02
    asset[3]  asset[0]  5.1500190897979727e-02
    asset[0]  asset[4]  2.8684436700461231e-02
    asset[4]  asset[0]  2.8684436700461231e-02
    asset[0]  asset[5]  5.8003987055992384e-02
    asset[5]  asset[0]  5.8003987055992384e-02
    asset[0]  asset[6]  -3.4249511158427212e-02
    asset[6]  asset[0]  -3.4249511158427212e-02
    asset[0]  asset[7]  -4.7297744194479876e-04
    asset[7]  asset[0]  -4.7297744194479876e-04
    asset[0]  asset[8]  -1.1189260203280246e-02
    asset[8]  asset[0]  -1.1189260203280246e-02
    asset[0]  asset[9]  -6.8087179209653903e-02
    asset[9]  asset[0]  -6.8087179209653903e-02
    asset[1]  asset[1]  8.5799465353212576e-02
    asset[1]  asset[2]  2.4646246843900857e-03
    asset[2]  asset[1]  2.4646246843900857e-03
    asset[1]  asset[3]  4.7994174636429854e-02
    asset[3]  asset[1]  4.7994174636429854e-02
    asset[1]  asset[4]  7.3263508194603977e-02
    asset[4]  asset[1]  7.3263508194603977e-02
    asset[1]  asset[5]  -2.2636739509468998e-02
    asset[5]  asset[1]  -2.2636739509468998e-02
    asset[1]  asset[6]  1.6089420853521816e-02
    asset[6]  asset[1]  1.6089420853521816e-02
    asset[1]  asset[7]  -5.1892922768838293e-02
    asset[7]  asset[1]  -5.1892922768838293e-02
    asset[1]  asset[8]  -2.7508088521472733e-02
    asset[8]  asset[1]  -2.7508088521472733e-02
    asset[1]  asset[9]  1.9219242906352286e-02
    asset[9]  asset[1]  1.9219242906352286e-02
    asset[2]  asset[2]  2.2004268163599638e-02
    asset[2]  asset[3]  2.1489370339426266e-02
    asset[3]  asset[2]  2.1489370339426266e-02
    asset[2]  asset[4]  2.7833581029620559e-02
    asset[4]  asset[2]  2.7833581029620559e-02
    asset[2]  asset[5]  4.9336175098759994e-03
    asset[5]  asset[2]  4.9336175098759994e-03
    asset[2]  asset[6]  -1.5407846710821561e-02
    asset[6]  asset[2]  -1.5407846710821561e-02
    asset[2]  asset[7]  -1.2990547488354105e-02
    asset[7]  asset[2]  -1.2990547488354105e-02
    asset[2]  asset[8]  6.7248767695733940e-04
    asset[8]  asset[2]  6.7248767695733940e-04
    asset[2]  asset[9]  6.3960738364763649e-04
    asset[9]  asset[2]  6.3960738364763649e-04
    asset[3]  asset[3]  7.1108508674830789e-02
    asset[3]  asset[4]  8.0282811329489639e-02
    asset[4]  asset[3]  8.0282811329489639e-02
    asset[3]  asset[5]  1.7946573450586673e-02
    asset[5]  asset[3]  1.7946573450586673e-02
    asset[3]  asset[6]  -1.6570669151157090e-02
    asset[6]  asset[3]  -1.6570669151157090e-02
    asset[3]  asset[7]  -4.2463183124357477e-02
    asset[7]  asset[3]  -4.2463183124357477e-02
    asset[3]  asset[8]  -2.3345689753316898e-02
    asset[8]  asset[3]  -2.3345689753316898e-02
    asset[3]  asset[9]  -2.1801438733716635e-02
    asset[9]  asset[3]  -2.1801438733716635e-02
    asset[4]  asset[4]  1.2547096794379733e-01
    asset[4]  asset[5]  9.1456400701827867e-03
    asset[5]  asset[4]  9.1456400701827867e-03
    asset[4]  asset[6]  -1.4640390573187360e-02
    asset[6]  asset[4]  -1.4640390573187360e-02
    asset[4]  asset[7]  -6.9774352420428273e-02
    asset[7]  asset[4]  -6.9774352420428273e-02
    asset[4]  asset[8]  -2.9239038713579565e-02
    asset[8]  asset[4]  -2.9239038713579565e-02
    asset[4]  asset[9]  -4.8460063796477160e-03
    asset[9]  asset[4]  -4.8460063796477160e-03
    asset[5]  asset[5]  3.4331530297024827e-02
    asset[5]  asset[6]  -2.0009569263686716e-02
    asset[6]  asset[5]  -2.0009569263686716e-02
    asset[5]  asset[7]  5.0806224025785078e-03
    asset[7]  asset[5]  5.0806224025785078e-03
    asset[5]  asset[8]  -2.0503280128419820e-03
    asset[8]  asset[5]  -2.0503280128419820e-03
    asset[5]  asset[9]  -3.7677162562315181e-02
    asset[9]  asset[5]  -3.7677162562315181e-02
    asset[6]  asset[6]  1.9606169553481548e-02
    asset[6]  asset[7]  1.1716664733585067e-03
    asset[7]  asset[6]  1.1716664733585067e-03
    asset[6]  asset[8]  -2.0095809722393701e-03
    asset[8]  asset[6]  -2.0095809722393701e-03
    asset[6]  asset[9]  1.7665339840824322e-02
    asset[9]  asset[6]  1.7665339840824322e-02
    asset[7]  asset[7]  4.2241399952590755e-02
    asset[7]  asset[8]  1.7708742011459562e-02
    asset[8]  asset[7]  1.7708742011459562e-02
    asset[7]  asset[9]  -7.3521098557058611e-03
    asset[9]  asset[7]  -7.3521098557058611e-03
    asset[8]  asset[8]  1.2407005384177362e-02
    asset[8]  asset[9]  5.7135392588795585e-03
    asset[9]  asset[8]  5.7135392588795585e-03
    asset[9]  asset[9]  4.5642205671714578e-02
QCMATRIX   fixed_risk
    asset[0]  asset[0]  1.0692782421414668e-02
    asset[1]  asset[1]  9.1891956378838627e-03
    asset[2]  asset[2]  2.0306114032280823e-03
    asset[3]  asset[3]  7.0227776568546965e-03
    asset[4]  asset[4]  1.2531740722793401e-02
    asset[5]  asset[5]  3.1482529003814216e-03
    asset[6]  asset[6]  1.9196802189094945e-03
    asset[7]  asset[7]  4.1720607091923047e-03
    asset[8]  asset[8]  1.2182717888154738e-03
    asset[9]  asset[9]  4.6233387051048637e-03
ENDATA
